p cnf 89 700
-15 -16 0
-15 -17 0
-15 -18 0
-15 -19 0
-15 -20 0
-16 -17 0
-16 -18 0
-16 -19 0
-16 -20 0
-17 -18 0
-17 -19 0
-17 -20 0
-18 -19 0
-18 -20 0
-19 -20 0
15 16 17 18 19 20 0
-21 -22 0
-21 -23 0
-21 -24 0
-21 -25 0
-21 -26 0
-22 -23 0
-22 -24 0
-22 -25 0
-22 -26 0
-23 -24 0
-23 -25 0
-23 -26 0
-24 -25 0
-24 -26 0
-25 -26 0
21 22 23 24 25 26 0
-27 -28 0
-27 -29 0
-27 -30 0
-27 -31 0
-27 -32 0
-28 -29 0
-28 -30 0
-28 -31 0
-28 -32 0
-29 -30 0
-29 -31 0
-29 -32 0
-30 -31 0
-30 -32 0
-31 -32 0
27 28 29 30 31 32 0
-33 -34 0
-33 -35 0
-33 -36 0
-33 -37 0
-33 -38 0
-34 -35 0
-34 -36 0
-34 -37 0
-34 -38 0
-35 -36 0
-35 -37 0
-35 -38 0
-36 -37 0
-36 -38 0
-37 -38 0
33 34 35 36 37 38 0
-39 -40 0
-39 -41 0
-39 -42 0
-39 -43 0
-39 -44 0
-40 -41 0
-40 -42 0
-40 -43 0
-40 -44 0
-41 -42 0
-41 -43 0
-41 -44 0
-42 -43 0
-42 -44 0
-43 -44 0
39 40 41 42 43 44 0
-15 -21 0
-15 -27 0
-15 -33 0
-15 -39 0
-21 -27 0
-21 -33 0
-21 -39 0
-27 -33 0
-27 -39 0
-33 -39 0
-16 -22 0
-16 -28 0
-16 -34 0
-16 -40 0
-22 -28 0
-22 -34 0
-22 -40 0
-28 -34 0
-28 -40 0
-34 -40 0
-17 -23 0
-17 -29 0
-17 -35 0
-17 -41 0
-23 -29 0
-23 -35 0
-23 -41 0
-29 -35 0
-29 -41 0
-35 -41 0
-18 -24 0
-18 -30 0
-18 -36 0
-18 -42 0
-24 -30 0
-24 -36 0
-24 -42 0
-30 -36 0
-30 -42 0
-36 -42 0
-19 -25 0
-19 -31 0
-19 -37 0
-19 -43 0
-25 -31 0
-25 -37 0
-25 -43 0
-31 -37 0
-31 -43 0
-37 -43 0
-20 -26 0
-20 -32 0
-20 -38 0
-20 -44 0
-26 -32 0
-26 -38 0
-26 -44 0
-32 -38 0
-32 -44 0
-38 -44 0
1 -15 -22 0
1 -15 -28 0
1 -15 -34 0
1 -15 -40 0
1 -21 -16 0
1 -21 -28 0
1 -21 -34 0
1 -21 -40 0
1 -27 -16 0
1 -27 -22 0
1 -27 -34 0
1 -27 -40 0
1 -33 -16 0
1 -33 -22 0
1 -33 -28 0
1 -33 -40 0
1 -39 -16 0
1 -39 -22 0
1 -39 -28 0
1 -39 -34 0
2 -15 -23 0
2 -15 -29 0
2 -15 -35 0
2 -15 -41 0
2 -21 -17 0
2 -21 -29 0
2 -21 -35 0
2 -21 -41 0
2 -27 -17 0
2 -27 -23 0
2 -27 -35 0
2 -27 -41 0
2 -33 -17 0
2 -33 -23 0
2 -33 -29 0
2 -33 -41 0
2 -39 -17 0
2 -39 -23 0
2 -39 -29 0
2 -39 -35 0
3 -15 -24 0
3 -15 -30 0
3 -15 -36 0
3 -15 -42 0
3 -21 -18 0
3 -21 -30 0
3 -21 -36 0
3 -21 -42 0
3 -27 -18 0
3 -27 -24 0
3 -27 -36 0
3 -27 -42 0
3 -33 -18 0
3 -33 -24 0
3 -33 -30 0
3 -33 -42 0
3 -39 -18 0
3 -39 -24 0
3 -39 -30 0
3 -39 -36 0
4 -15 -25 0
4 -15 -31 0
4 -15 -37 0
4 -15 -43 0
4 -21 -19 0
4 -21 -31 0
4 -21 -37 0
4 -21 -43 0
4 -27 -19 0
4 -27 -25 0
4 -27 -37 0
4 -27 -43 0
4 -33 -19 0
4 -33 -25 0
4 -33 -31 0
4 -33 -43 0
4 -39 -19 0
4 -39 -25 0
4 -39 -31 0
4 -39 -37 0
5 -15 -26 0
5 -15 -32 0
5 -15 -38 0
5 -15 -44 0
5 -21 -20 0
5 -21 -32 0
5 -21 -38 0
5 -21 -44 0
5 -27 -20 0
5 -27 -26 0
5 -27 -38 0
5 -27 -44 0
5 -33 -20 0
5 -33 -26 0
5 -33 -32 0
5 -33 -44 0
5 -39 -20 0
5 -39 -26 0
5 -39 -32 0
5 -39 -38 0
6 -16 -23 0
6 -16 -29 0
6 -16 -35 0
6 -16 -41 0
6 -22 -17 0
6 -22 -29 0
6 -22 -35 0
6 -22 -41 0
6 -28 -17 0
6 -28 -23 0
6 -28 -35 0
6 -28 -41 0
6 -34 -17 0
6 -34 -23 0
6 -34 -29 0
6 -34 -41 0
6 -40 -17 0
6 -40 -23 0
6 -40 -29 0
6 -40 -35 0
7 -16 -25 0
7 -16 -31 0
7 -16 -37 0
7 -16 -43 0
7 -22 -19 0
7 -22 -31 0
7 -22 -37 0
7 -22 -43 0
7 -28 -19 0
7 -28 -25 0
7 -28 -37 0
7 -28 -43 0
7 -34 -19 0
7 -34 -25 0
7 -34 -31 0
7 -34 -43 0
7 -40 -19 0
7 -40 -25 0
7 -40 -31 0
7 -40 -37 0
8 -16 -26 0
8 -16 -32 0
8 -16 -38 0
8 -16 -44 0
8 -22 -20 0
8 -22 -32 0
8 -22 -38 0
8 -22 -44 0
8 -28 -20 0
8 -28 -26 0
8 -28 -38 0
8 -28 -44 0
8 -34 -20 0
8 -34 -26 0
8 -34 -32 0
8 -34 -44 0
8 -40 -20 0
8 -40 -26 0
8 -40 -32 0
8 -40 -38 0
9 -17 -24 0
9 -17 -30 0
9 -17 -36 0
9 -17 -42 0
9 -23 -18 0
9 -23 -30 0
9 -23 -36 0
9 -23 -42 0
9 -29 -18 0
9 -29 -24 0
9 -29 -36 0
9 -29 -42 0
9 -35 -18 0
9 -35 -24 0
9 -35 -30 0
9 -35 -42 0
9 -41 -18 0
9 -41 -24 0
9 -41 -30 0
9 -41 -36 0
10 -17 -25 0
10 -17 -31 0
10 -17 -37 0
10 -17 -43 0
10 -23 -19 0
10 -23 -31 0
10 -23 -37 0
10 -23 -43 0
10 -29 -19 0
10 -29 -25 0
10 -29 -37 0
10 -29 -43 0
10 -35 -19 0
10 -35 -25 0
10 -35 -31 0
10 -35 -43 0
10 -41 -19 0
10 -41 -25 0
10 -41 -31 0
10 -41 -37 0
11 -17 -26 0
11 -17 -32 0
11 -17 -38 0
11 -17 -44 0
11 -23 -20 0
11 -23 -32 0
11 -23 -38 0
11 -23 -44 0
11 -29 -20 0
11 -29 -26 0
11 -29 -38 0
11 -29 -44 0
11 -35 -20 0
11 -35 -26 0
11 -35 -32 0
11 -35 -44 0
11 -41 -20 0
11 -41 -26 0
11 -41 -32 0
11 -41 -38 0
12 -18 -25 0
12 -18 -31 0
12 -18 -37 0
12 -18 -43 0
12 -24 -19 0
12 -24 -31 0
12 -24 -37 0
12 -24 -43 0
12 -30 -19 0
12 -30 -25 0
12 -30 -37 0
12 -30 -43 0
12 -36 -19 0
12 -36 -25 0
12 -36 -31 0
12 -36 -43 0
12 -42 -19 0
12 -42 -25 0
12 -42 -31 0
12 -42 -37 0
13 -18 -26 0
13 -18 -32 0
13 -18 -38 0
13 -18 -44 0
13 -24 -20 0
13 -24 -32 0
13 -24 -38 0
13 -24 -44 0
13 -30 -20 0
13 -30 -26 0
13 -30 -38 0
13 -30 -44 0
13 -36 -20 0
13 -36 -26 0
13 -36 -32 0
13 -36 -44 0
13 -42 -20 0
13 -42 -26 0
13 -42 -32 0
13 -42 -38 0
14 -19 -26 0
14 -19 -32 0
14 -19 -38 0
14 -19 -44 0
14 -25 -20 0
14 -25 -32 0
14 -25 -38 0
14 -25 -44 0
14 -31 -20 0
14 -31 -26 0
14 -31 -38 0
14 -31 -44 0
14 -37 -20 0
14 -37 -26 0
14 -37 -32 0
14 -37 -44 0
14 -43 -20 0
14 -43 -26 0
14 -43 -32 0
14 -43 -38 0
-45 -46 0
-45 -47 0
-45 -48 0
-45 -49 0
-45 -50 0
-45 -51 0
-45 -52 0
-45 -53 0
-46 -47 0
-46 -48 0
-46 -49 0
-46 -50 0
-46 -51 0
-46 -52 0
-46 -53 0
-47 -48 0
-47 -49 0
-47 -50 0
-47 -51 0
-47 -52 0
-47 -53 0
-48 -49 0
-48 -50 0
-48 -51 0
-48 -52 0
-48 -53 0
-49 -50 0
-49 -51 0
-49 -52 0
-49 -53 0
-50 -51 0
-50 -52 0
-50 -53 0
-51 -52 0
-51 -53 0
-52 -53 0
45 46 47 48 49 50 51 52 53 0
-54 -55 0
-54 -56 0
-54 -57 0
-54 -58 0
-54 -59 0
-54 -60 0
-54 -61 0
-54 -62 0
-55 -56 0
-55 -57 0
-55 -58 0
-55 -59 0
-55 -60 0
-55 -61 0
-55 -62 0
-56 -57 0
-56 -58 0
-56 -59 0
-56 -60 0
-56 -61 0
-56 -62 0
-57 -58 0
-57 -59 0
-57 -60 0
-57 -61 0
-57 -62 0
-58 -59 0
-58 -60 0
-58 -61 0
-58 -62 0
-59 -60 0
-59 -61 0
-59 -62 0
-60 -61 0
-60 -62 0
-61 -62 0
54 55 56 57 58 59 60 61 62 0
-63 -64 0
-63 -65 0
-63 -66 0
-63 -67 0
-63 -68 0
-63 -69 0
-63 -70 0
-63 -71 0
-64 -65 0
-64 -66 0
-64 -67 0
-64 -68 0
-64 -69 0
-64 -70 0
-64 -71 0
-65 -66 0
-65 -67 0
-65 -68 0
-65 -69 0
-65 -70 0
-65 -71 0
-66 -67 0
-66 -68 0
-66 -69 0
-66 -70 0
-66 -71 0
-67 -68 0
-67 -69 0
-67 -70 0
-67 -71 0
-68 -69 0
-68 -70 0
-68 -71 0
-69 -70 0
-69 -71 0
-70 -71 0
63 64 65 66 67 68 69 70 71 0
-72 -73 0
-72 -74 0
-72 -75 0
-72 -76 0
-72 -77 0
-72 -78 0
-72 -79 0
-72 -80 0
-73 -74 0
-73 -75 0
-73 -76 0
-73 -77 0
-73 -78 0
-73 -79 0
-73 -80 0
-74 -75 0
-74 -76 0
-74 -77 0
-74 -78 0
-74 -79 0
-74 -80 0
-75 -76 0
-75 -77 0
-75 -78 0
-75 -79 0
-75 -80 0
-76 -77 0
-76 -78 0
-76 -79 0
-76 -80 0
-77 -78 0
-77 -79 0
-77 -80 0
-78 -79 0
-78 -80 0
-79 -80 0
72 73 74 75 76 77 78 79 80 0
-81 -82 0
-81 -83 0
-81 -84 0
-81 -85 0
-81 -86 0
-81 -87 0
-81 -88 0
-81 -89 0
-82 -83 0
-82 -84 0
-82 -85 0
-82 -86 0
-82 -87 0
-82 -88 0
-82 -89 0
-83 -84 0
-83 -85 0
-83 -86 0
-83 -87 0
-83 -88 0
-83 -89 0
-84 -85 0
-84 -86 0
-84 -87 0
-84 -88 0
-84 -89 0
-85 -86 0
-85 -87 0
-85 -88 0
-85 -89 0
-86 -87 0
-86 -88 0
-86 -89 0
-87 -88 0
-87 -89 0
-88 -89 0
81 82 83 84 85 86 87 88 89 0
-1 -45 -54 0
-1 -46 -55 0
-1 -47 -56 0
-1 -48 -57 0
-1 -49 -58 0
-1 -50 -59 0
-1 -51 -60 0
-1 -52 -61 0
-1 -53 -62 0
-2 -45 -63 0
-2 -46 -64 0
-2 -47 -65 0
-2 -48 -66 0
-2 -49 -67 0
-2 -50 -68 0
-2 -51 -69 0
-2 -52 -70 0
-2 -53 -71 0
-3 -45 -72 0
-3 -46 -73 0
-3 -47 -74 0
-3 -48 -75 0
-3 -49 -76 0
-3 -50 -77 0
-3 -51 -78 0
-3 -52 -79 0
-3 -53 -80 0
-4 -45 -81 0
-4 -46 -82 0
-4 -47 -83 0
-4 -48 -84 0
-4 -49 -85 0
-4 -50 -86 0
-4 -51 -87 0
-4 -52 -88 0
-4 -53 -89 0
-5 -53 0
-6 -54 -63 0
-6 -55 -64 0
-6 -56 -65 0
-6 -57 -66 0
-6 -58 -67 0
-6 -59 -68 0
-6 -60 -69 0
-6 -61 -70 0
-6 -62 -71 0
-54 -72 0
-55 -73 0
-56 -74 0
-57 -75 0
-58 -76 0
-59 -77 0
-60 -78 0
-61 -79 0
-62 -80 0
-7 -54 -81 0
-7 -55 -82 0
-7 -56 -83 0
-7 -57 -84 0
-7 -58 -85 0
-7 -59 -86 0
-7 -60 -87 0
-7 -61 -88 0
-7 -62 -89 0
-8 -62 0
-9 -63 -72 0
-9 -64 -73 0
-9 -65 -74 0
-9 -66 -75 0
-9 -67 -76 0
-9 -68 -77 0
-9 -69 -78 0
-9 -70 -79 0
-9 -71 -80 0
-10 -63 -81 0
-10 -64 -82 0
-10 -65 -83 0
-10 -66 -84 0
-10 -67 -85 0
-10 -68 -86 0
-10 -69 -87 0
-10 -70 -88 0
-10 -71 -89 0
-11 -71 0
-12 -72 -81 0
-12 -73 -82 0
-12 -74 -83 0
-12 -75 -84 0
-12 -76 -85 0
-12 -77 -86 0
-12 -78 -87 0
-12 -79 -88 0
-12 -80 -89 0
-13 -80 0
-14 -89 0
